\* Problem: Robots *\

Minimize
 obj: + 905 V17 + 467 V27 + 400 V37 + 559 V47 + 681 V57 + 10000 V67
 + 0 x_50 + 0 x_51 + 0 x_52 + 0 x_53 + 0 x_54 + 0 x_55 + 0 x_56 + 0 x_57
 + 0 x_58 + 0 x_59 + 0 x_60 + 0 x_61 + 0 x_62 + 0 x_63 + 0 x_64 + 0 x_65
 + 0 x_66 + 0 x_67 + 0 x_68 + 0 x_69 + 0 x_70 + 0 x_71 + 0 x_72 + 0 x_73
 + 0 x_74 + 0 x_75 + 0 x_76 + 0 x_77 + 0 x_78 + 0 x_79 + 0 x_80 + 0 x_81
 + 0 x_82 + 0 x_83 + 0 x_84 + 0 x_85 + 0 x_86 + 0 x_87 + 0 x_88 + 0 x_89
 + 0 x_90 + 0 x_91 + 0 x_92 + 0 x_93 + 0 x_94 + 0 x_95 + 0 x_96 + 0 x_97
 + 0 x_98
\* constant term = 250 *\

Subject To
 contA1: + V17 + V16 + V15 + V14 + V13 + V12 + V11 = 1
 contA2: + V27 + V26 + V25 + V24 + V23 + V22 + V21 = 1
 contA3: + V37 + V36 + V35 + V34 + V33 + V32 + V31 = 1
 contA4: + V47 + V46 + V45 + V44 + V43 + V42 + V41 = 1
 contA5: + V57 + V56 + V55 + V54 + V53 + V52 + V51 = 1
 contA6: + V67 + V66 + V65 + V64 + V63 + V62 + V61 = 1
 contA7: + V77 + V76 + V75 + V74 + V73 + V72 + V71 = 1
 contB1: + V71 + V61 + V51 + V41 + V31 + V21 + V11 = 1
 contB2: + V72 + V62 + V52 + V42 + V32 + V22 + V12 = 1
 contB3: + V73 + V63 + V53 + V43 + V33 + V23 + V13 = 1
 contB4: + V74 + V64 + V54 + V44 + V34 + V24 + V14 = 1
 contB5: + V75 + V65 + V55 + V45 + V35 + V25 + V15 = 1
 contB6: + V76 + V66 + V56 + V46 + V36 + V26 + V16 = 1
 contB7: + V77 + V67 + V57 + V47 + V37 + V27 + V17 = 1

Bounds
 0 <= V11 <= 1
 0 <= V12 <= 1
 0 <= V13 <= 1
 0 <= V14 <= 1
 0 <= V15 <= 1
 0 <= V16 <= 1
 0 <= V17 <= 1
 0 <= V21 <= 1
 0 <= V22 <= 1
 0 <= V23 <= 1
 0 <= V24 <= 1
 0 <= V25 <= 1
 0 <= V26 <= 1
 0 <= V27 <= 1
 0 <= V31 <= 1
 0 <= V32 <= 1
 0 <= V33 <= 1
 0 <= V34 <= 1
 0 <= V35 <= 1
 0 <= V36 <= 1
 0 <= V37 <= 1
 0 <= V41 <= 1
 0 <= V42 <= 1
 0 <= V43 <= 1
 0 <= V44 <= 1
 0 <= V45 <= 1
 0 <= V46 <= 1
 0 <= V47 <= 1
 0 <= V51 <= 1
 0 <= V52 <= 1
 0 <= V53 <= 1
 0 <= V54 <= 1
 0 <= V55 <= 1
 0 <= V56 <= 1
 0 <= V57 <= 1
 0 <= V61 <= 1
 0 <= V62 <= 1
 0 <= V63 <= 1
 0 <= V64 <= 1
 0 <= V65 <= 1
 0 <= V66 <= 1
 0 <= V67 <= 1
 0 <= V71 <= 1
 0 <= V72 <= 1
 0 <= V73 <= 1
 0 <= V74 <= 1
 0 <= V75 <= 1
 0 <= V76 <= 1
 0 <= V77 <= 1
 x_50 = 0
 x_51 = 0
 x_52 = 0
 x_53 = 0
 x_54 = 0
 x_55 = 0
 x_56 = 0
 x_57 = 0
 x_58 = 0
 x_59 = 0
 x_60 = 0
 x_61 = 0
 x_62 = 0
 x_63 = 0
 x_64 = 0
 x_65 = 0
 x_66 = 0
 x_67 = 0
 x_68 = 0
 x_69 = 0
 x_70 = 0
 x_71 = 0
 x_72 = 0
 x_73 = 0
 x_74 = 0
 x_75 = 0
 x_76 = 0
 x_77 = 0
 x_78 = 0
 x_79 = 0
 x_80 = 0
 x_81 = 0
 x_82 = 0
 x_83 = 0
 x_84 = 0
 x_85 = 0
 x_86 = 0
 x_87 = 0
 x_88 = 0
 x_89 = 0
 x_90 = 0
 x_91 = 0
 x_92 = 0
 x_93 = 0
 x_94 = 0
 x_95 = 0
 x_96 = 0
 x_97 = 0
 x_98 = 0

Generals
 V11
 V12
 V13
 V14
 V15
 V16
 V17
 V21
 V22
 V23
 V24
 V25
 V26
 V27
 V31
 V32
 V33
 V34
 V35
 V36
 V37
 V41
 V42
 V43
 V44
 V45
 V46
 V47
 V51
 V52
 V53
 V54
 V55
 V56
 V57
 V61
 V62
 V63
 V64
 V65
 V66
 V67
 V71
 V72
 V73
 V74
 V75
 V76
 V77

End
